Route #1: 96 146 128 123
Route #2: 75 18 42
Route #3: 107 118 110 137
Route #4: 17 112 32 104 82 136
Route #5: 99
Route #6: 44 61 67 98
Route #7: 91 34 72 58
Route #8: 130 26 37 8 114 53
Route #9: 88 106 129
Route #10: 85 127 77 109 134 62
Route #11: 120 81 7 57 14 10 54 68
Route #12: 92 79 139 33 13 66 36
Route #13: 1 5 95 143
Route #14: 141 50 9 24 63 29 25
Route #15: 40 6 115 100 126 46
Route #16: 135 3 12 45 30 56
Route #17: 125 116 90 31 89 39
Route #18: 19 4 15 108 131 138 60 93
Route #19: 94 144 78 97 132
Route #20: 20 80 119 48 52 73
Route #21: 64 65 147 51 140
Route #22: 105 103 101 47 23
Route #23: 41 133 11 38 69 28 121
Route #24: 111 49 145 71 59 87 76 83
Route #25: 74 117 16 102 124 21 43
Route #26: 142 113 70 35 2 86
Route #27: 27 55 22 122 84
Cost 31070.000000